c SAT problem
p wcnf 214 552
1 75 76 0
1 75 3135 0
1 90 -3060 0
1 -105 -3150 0
1 105 3120 0
1 -105 3090 0
1 105 3060 0
1 -105 -90 0
1 -105 -3165 0
1 3120 105 0
1 3120 -3135 0
1 -3135 196 0
1 3135 105 0
1 -3135 75 0
1 3135 120 0
1 -3150 105 0
1 3150 3151 0
1 3150 -60 0
1 -3150 -3165 0
1 3165 181 0
1 -3165 121 0
1 -135 3060 0
1 150 -3105 0
1 150 3015 0
1 150 3120 0
1 150 -3090 0
1 -165 3015 0
1 -165 -3060 0
1 3060 255 0
1 3075 135 0
1 3075 -120 0
1 -3075 -90 0
1 -3075 255 0
1 -3090 255 0
1 3105 135 0
1 3105 105 0
1 3105 240 0
1 -180 3075 0
1 -180 -3015 0
1 180 -3000 0
1 195 -3030 0
1 195 -3000 0
1 210 -3075 0
1 -210 3045 0
1 -210 -211 0
1 225 -226 0
1 -225 -3015 0
1 -3000 3015 0
1 3030 150 0
1 3045 270 0
1 -3045 255 0
1 -61 -3300 0
1 61 60 0
1 91 -3330 0
1 91 -3315 0
1 106 3330 0
1 -106 -105 0
1 106 3285 0
1 -3300 -166 0
1 -3300 -151 0
1 -3315 136 0
1 -3315 -182 0
1 3330 167 0
1 -3330 -137 0
1 3345 -197 0
1 -121 136 0
1 -121 3150 0
1 -121 3315 0
1 -121 3165 0
1 -136 -3300 0
1 136 3255 0
1 -136 -121 0
1 -136 -3165 0
1 151 -3270 0
1 151 -3150 0
1 -151 3285 0
1 151 150 0
1 151 -3195 0
1 -166 3300 0
1 166 3270 0
1 -166 -3180 0
1 -166 3150 0
1 -166 3165 0
1 3240 -166 0
1 3240 151 0
1 3240 -91 0
1 -3255 196 0
1 -3255 -241 0
1 3255 -211 0
1 3255 -91 0
1 3270 256 0
1 3270 -166 0
1 3270 136 0
1 3285 227 0
1 -3285 -3270 0
1 -3285 106 0
1 -3285 212 0
1 -181 3105 0
1 -181 3210 0
1 -181 3120 0
1 181 3195 0
1 -196 -3150 0
1 -196 -3135 0
1 -211 -3240 0
1 211 3090 0
1 211 -212 0
1 -211 -3255 0
1 211 -3195 0
1 226 -3090 0
1 3180 226 0
1 -3180 -301 0
1 3180 270 0
1 3180 181 0
1 -3195 -3180 0
1 3195 181 0
1 3195 -316 0
1 -3210 196 0
1 3210 271 0
1 -3210 241 0
1 3225 211 0
1 3225 -316 0
1 -240 241 0
1 240 3090 0
1 240 3030 0
1 240 3195 0
1 -240 255 0
1 255 -3136 0
1 255 3045 0
1 -255 3030 0
1 -255 -3195 0
1 270 -3106 0
1 -270 -3045 0
1 270 3121 0
1 270 3195 0
1 285 -3076 0
1 285 3061 0
1 285 3030 0
1 -285 -3195 0
1 3121 3136 0
1 3121 -330 0
1 -3121 300 0
1 3121 270 0
1 3121 211 0
1 -3136 3135 0
1 3136 345 0
1 3151 -226 0
1 -3151 -361 0
1 -3151 301 0
1 3151 240 0
1 3151 -3152 0
1 3151 -211 0
1 3151 -255 0
1 3166 -226 0
1 3166 240 0
1 300 -3076 0
1 315 3106 0
1 -315 -3015 0
1 -330 -3106 0
1 -330 -3121 0
1 -330 -3061 0
1 330 3001 0
1 -345 330 0
1 345 -3031 0
1 3061 -3076 0
1 -3061 270 0
1 -3061 435 0
1 3061 405 0
1 3076 330 0
1 -3091 -270 0
1 -3106 3105 0
1 -3106 -300 0
1 -405 3046 0
1 -3001 -480 0
1 -3001 360 0
1 -3001 -330 0
1 -3001 375 0
1 -3016 -390 0
1 3016 495 0
1 3016 405 0
1 -3031 -480 0
1 3031 -465 0
1 -3046 -450 0
1 -3046 -420 0
1 3046 -435 0
1 3046 345 0
1 -62 -3510 0
1 -77 -76 0
1 77 -3510 0
1 92 -3495 0
1 92 -3465 0
1 -92 3435 0
1 107 3525 0
1 107 3495 0
1 3480 -77 0
1 -3495 -3496 0
1 3495 -152 0
1 3495 -62 0
1 -3525 -107 0
1 -3525 92 0
1 -122 -3465 0
1 122 -3450 0
1 137 -3450 0
1 137 -122 0
1 -152 3375 0
1 152 -3480 0
1 167 3420 0
1 167 -3390 0
1 3420 -227 0
1 3420 197 0
1 -3435 257 0
1 -3435 -197 0
1 -3435 107 0
1 3435 -212 0
1 -3435 -122 0
1 -3450 137 0
1 -3450 -152 0
1 -3465 137 0
1 3465 3466 0
1 3465 -92 0
1 182 -3315 0
1 -182 -3420 0
1 -197 -3330 0
1 197 -3300 0
1 -197 3420 0
1 212 -3360 0
1 -212 3270 0
1 -212 -3375 0
1 -212 -3346 0
1 212 3316 0
1 227 3435 0
1 -227 3375 0
1 3360 -3361 0
1 -3375 -167 0
1 -3375 302 0
1 3390 227 0
1 3390 242 0
1 -3390 152 0
1 -3405 -272 0
1 3405 152 0
1 -241 -242 0
1 -241 -3316 0
1 241 3285 0
1 -256 -3360 0
1 256 257 0
1 256 3240 0
1 256 -3210 0
1 -256 241 0
1 -256 -3316 0
1 -271 -3360 0
1 271 -272 0
1 271 3225 0
1 286 3241 0
1 -286 3210 0
1 -286 -3316 0
1 -3301 3316 0
1 -3301 316 0
1 3316 -3315 0
1 -3331 3330 0
1 3331 -227 0
1 3331 362 0
1 -3331 332 0
1 -3331 -302 0
1 3331 317 0
1 3346 -302 0
1 -301 3241 0
1 -301 3316 0
1 301 -3286 0
1 -301 3256 0
1 -301 316 0
1 301 -3166 0
1 -316 -3210 0
1 316 301 0
1 316 -3225 0
1 -331 -3271 0
1 -331 3211 0
1 331 332 0
1 346 -331 0
1 -346 -3181 0
1 346 3286 0
1 -3241 331 0
1 3241 436 0
1 3256 -271 0
1 -3256 3255 0
1 3256 -376 0
1 3256 3257 0
1 -3271 421 0
1 3271 362 0
1 -3271 331 0
1 3271 -301 0
1 3271 -3286 0
1 -3271 -377 0
1 3286 -362 0
1 3286 -271 0
1 -3286 -3285 0
1 361 3106 0
1 361 -3256 0
1 361 -362 0
1 -361 -3091 0
1 -376 -3106 0
1 -376 377 0
1 376 -3196 0
1 -391 392 0
1 406 -3137 0
1 406 -3256 0
1 -3181 -391 0
1 -3181 -3180 0
1 3181 -3182 0
1 -3181 -496 0
1 3181 465 0
1 -3196 -481 0
1 3196 420 0
1 3196 496 0
1 -3196 3195 0
1 3211 -451 0
1 3211 -331 0
1 -3211 436 0
1 3211 -376 0
1 3226 3211 0
1 3226 -496 0
1 3226 -406 0
1 3226 -376 0
1 -3226 -3225 0
1 -420 3181 0
1 435 -3181 0
1 435 -3031 0
1 -435 -3167 0
1 450 -451 0
1 450 -465 0
1 -450 -3122 0
1 -450 3062 0
1 450 3167 0
1 3122 3121 0
1 3137 450 0
1 3137 3122 0
1 3152 -3151 0
1 3152 -406 0
1 -3152 541 0
1 480 3046 0
1 -480 -3016 0
1 -480 3092 0
1 -495 -3137 0
1 495 -496 0
1 -495 3122 0
1 -495 -3001 0
1 525 -3092 0
1 -525 -3002 0
1 -3062 450 0
1 -3062 555 0
1 -3077 -465 0
1 -3077 3062 0
1 3092 586 0
1 -3107 -3106 0
1 3107 465 0
1 3107 -541 0
1 -540 -541 0
1 -555 -3077 0
1 555 3047 0
1 -555 -3062 0
1 -570 3062 0
1 570 3032 0
1 -570 -571 0
1 3002 -525 0
1 -3032 3047 0
1 3032 525 0
1 3032 3031 0
1 3032 510 0
1 -3047 585 0
1 -3047 -555 0
1 3047 525 0
1 -242 -257 0
1 -242 -3435 0
1 -257 -256 0
1 257 3465 0
1 257 -3511 0
1 -272 3405 0
1 272 -271 0
1 272 -3481 0
1 -272 -3421 0
1 -272 -287 0
1 287 -3421 0
1 3481 -287 0
1 3496 -3495 0
1 -3496 272 0
1 -3496 -242 0
1 3496 -3481 0
1 -3496 347 0
1 -3511 3526 0
1 -3511 -3510 0
1 3526 -257 0
1 -3526 3527 0
1 -302 -3360 0
1 302 3466 0
1 -302 -3481 0
1 317 -3331 0
1 -332 -3361 0
1 -332 3436 0
1 332 3376 0
1 332 -3451 0
1 332 -3481 0
1 332 -3421 0
1 -332 -3391 0
1 -347 -3331 0
1 -347 3496 0
1 347 3466 0
1 347 -3481 0
1 347 346 0
1 347 3451 0
1 -347 -3391 0
1 3421 437 0
1 3421 347 0
1 -3421 -287 0
1 3436 -3435 0
1 3436 3437 0
1 3436 -302 0
1 -3451 3466 0
1 3451 3452 0
1 3466 -422 0
1 3466 -3465 0
1 -3466 332 0
1 -362 -3436 0
1 -362 3316 0
1 362 3421 0
1 362 -3391 0
1 377 -3406 0
1 377 -3391 0
1 -392 -3332 0
1 -392 -3271 0
1 392 3347 0
1 -392 -3317 0
1 407 3376 0
1 -3361 -3360 0
1 -3361 -332 0
1 -3361 466 0
1 -3376 -436 0
1 3391 -422 0
1 3391 362 0
1 -3391 467 0
1 -3391 -347 0
1 3406 422 0
1 -3406 3405 0
1 -3406 467 0
1 -3406 -407 0
1 421 -3332 0
1 -421 3211 0
1 -421 3226 0
1 436 3302 0
1 436 3376 0
1 -451 3361 0
1 -451 3302 0
1 -451 -3211 0
1 451 -3287 0
1 466 3211 0
1 466 -3376 0
1 466 3347 0
1 -466 -3317 0
1 -3302 3317 0
1 -3302 -407 0
1 3317 3302 0
1 3317 392 0
1 -3317 407 0
1 -3332 -482 0
1 3332 -497 0
1 3347 -497 0
1 481 -480 0
1 -481 3196 0
1 -496 -3272 0
1 -496 -3317 0
1 496 -3257 0
1 -511 -512 0
1 526 -3272 0
1 526 3242 0
1 -526 -3212 0
1 -526 3182 0
1 -526 3317 0
1 3242 3257 0
1 3242 -3241 0
1 3242 586 0
1 -3242 -571 0
1 3242 -511 0
1 3257 481 0
1 3257 -556 0
1 3257 -466 0
1 3272 -481 0
1 3272 -451 0
1 -3272 -3271 0
1 3272 587 0
1 3287 557 0
1 -541 556 0
1 541 -3182 0
1 -541 540 0
1 556 -3092 0
1 556 -3227 0
1 -556 -3167 0
1 571 3242 0
1 -571 3212 0
1 -586 -585 0
1 -586 3182 0
1 586 3092 0
1 -3182 -556 0
1 3197 571 0
1 -3212 526 0
1 -3212 -541 0
1 3212 511 0
1 3227 3212 0
1 -3227 -3226 0
1 -3227 -541 0
1 -422 3391 0
1 437 -3436 0
1 -437 3512 0
1 437 -3391 0
1 467 -3527 0
1 467 3406 0
1 467 -3482 0
1 -467 3452 0
1 3482 -422 0
1 -3482 3497 0
1 -3482 467 0
1 -3497 452 0
1 -3497 422 0
1 3497 467 0
1 3512 -422 0
1 3512 -467 0
1 3512 3511 0
1 512 -3332 0
1 -512 -3452 0
1 527 -3392 0
1 -527 -3362 0
1 -527 -3347 0
1 -527 -3452 0
1 -527 3422 0
1 3422 -512 0
1 -3437 -497 0
1 3452 512 0
1 3452 -527 0
1 -3467 527 0
1 3467 -497 0
1 -3467 467 0
1 -557 -3362 0
1 -557 556 0
1 557 -3437 0
1 -572 3392 0
1 -572 3437 0
1 -572 571 0
1 587 -3362 0
1 -587 3272 0
1 587 586 0
1 3377 512 0
1 -3392 -587 0
1 -3392 557 0
1 3392 572 0
1 3407 -557 0
1 3407 527 0
